benchmark_str_length/p2_10_13-0.dzn
Alphabet = {A,C,G,T};
ns = 10;
nc = 13;
sl = 13;
neighbours = [| I(G),I(G),I(A),I(G),I(A),Null,Null,Null,Null,Null,Null,Null,Null | I(G),I(C),I(G),I(T),I(A),I(A),I(T),Null,Null,Null,Null,Null,Null | I(G),I(T),I(C),I(C),I(C),I(C),I(G),I(T),I(C),Null,Null,Null,Null | I(T),I(C),I(T),I(C),I(A),I(G),I(T),I(T),I(G),I(T),I(C),I(T),Null | I(A),I(G),I(A),I(A),I(G),I(T),I(T),I(A),Null,Null,Null,Null,Null | I(C),I(A),I(T),I(C),I(G),I(G),I(A),I(G),I(A),I(C),I(A),I(A),I(T) | I(A),I(T),I(G),I(G),I(C),I(T),I(T),I(T),I(G),I(C),I(T),I(T),Null | I(C),I(T),I(C),I(A),I(C),Null,Null,Null,Null,Null,Null,Null,Null | I(A),I(C),I(C),I(A),I(T),I(T),I(G),I(C),I(C),I(A),I(A),Null,Null | I(A),I(C),Null,Null,Null,Null,Null,Null,Null,Null,Null,Null,Null |];
