benchmark_str_length/p2_10_13-0.txt
{
	"num_strings": 10,
	"alphabet": "ACGT",
	"strings": [
		"GGAGA",
		"GCGTAAT",
		"GTCCCCGTC",
		"TCTCAGTTGTCT",
		"AGAAGTTA",
		"CATCGGAGACAAT",
		"ATGGCTTTGCTT",
		"CTCAC",
		"ACCATTGCCAA",
		"AC"
	],
	"str_length":[5,7,9,12,8,13,12,5,11,2]
}